3 2 1.7
2 1 1 43 2 1 87 2 95
2 2 1 63 2 53 1 2 73
2 2 1 125 2 135 2 1 43 2 61

15 7 9 1000000 8 7 
10 14 8 1000000 10 7 
7 7 13 1000000 7 7 
1000000 1000000 1000000 1000000 1000000 1000000 
8 8 6 1000000 13 9 
8 7 8 1000000 7 14 
1000000 1000000 1000000 1000000 1000000 1000000 
1000000 13 9 6 9 6 
1000000 6 15 7 7 6 
1000000 8 9 14 7 7 
1000000 7 8 8 15 9 
1000000 7 9 8 8 13 
